166769.14,52.3,64.86
160952.69,54.19,67.2
160194.97,54.45,67.52
169590.46,51.43,63.78
155544.84,56.08,69.54
159944.16,54.54,67.63
147404.06,59.17,73.38
161002.57,54.18,67.18
153419.8,56.85,70.5
172720.38,50.5,62.63
170336.66,51.21,63.5
170388.15,51.19,63.48
160380.35,54.39,67.44
165252.0,52.78,65.46
169624.24,51.42,63.77
154051.31,56.62,70.22
159747.97,54.6,67.71
157252.36,55.47,68.79
161424.59,54.04,67.01
150028.91,58.14,72.1
